logs/drand/feas/drand-05-110-2.sol
# Objective value = 180
x0,1_52 0
x0,1_54 0
x0,1_85 0
x0,1_88 0
x0,1_99 0
x0,2_52 0
x0,2_54 0
x0,2_85 0
x0,2_88 0
x0,2_99 0
x0,3_52 0
x0,3_54 0
x0,3_85 0
x0,3_88 0
x0,3_99 0
x0,4_52 0
x0,4_54 1
x0,4_85 0
x0,4_88 0
x0,4_99 0
x0,5_52 0
x0,5_54 0
x0,5_85 0
x0,5_88 0
x0,5_99 1
x1,2_52 0
x1,2_54 0
x1,2_85 0
x1,2_88 0
x1,2_99 0
x1,3_52 0
x1,3_54 0
x1,3_85 0
x1,3_88 0
x1,3_99 0
x1,4_52 1
x1,4_54 0
x1,4_85 0
x1,4_88 0
x1,4_99 0
x1,5_52 0
x1,5_54 0
x1,5_85 0
x1,5_88 0
x1,5_99 0
x2,3_52 0
x2,3_54 0
x2,3_85 0
x2,3_88 0
x2,3_99 0
x2,4_52 0
x2,4_54 0
x2,4_85 0
x2,4_88 0
x2,4_99 0
x2,5_52 0
x2,5_54 0
x2,5_85 0
x2,5_88 1
x2,5_99 0
x3,4_52 0
x3,4_54 0
x3,4_85 0
x3,4_88 0
x3,4_99 0
x3,5_52 0
x3,5_54 0
x3,5_85 1
x3,5_88 0
x3,5_99 0
x4,5_52 0
x4,5_54 0
x4,5_85 0
x4,5_88 0
x4,5_99 0
p0 0
p1 2
p2 11
p3 14
p4 54
p5 99
